BenchmarksExist/linux/CWE-189-Numeric-Errors/CVE_2010_4160_8acfe468b0384e834a303f08ebc4953d72fb690a/iov_from_user_compat_to_kern_SnippetExist32_2.smt2
; benchmark generated from python API
(set-info :status unknown)
(declare-fun rdi () (_ BitVec 32))
(assert
 (let ((?x6 ((_ extract 31 0) rdi)))
 (let (($x52 (= ?x6 (_ bv2147483648 32))))
 (and $x52))))
(check-sat)

